instances/knapsack/discrete/knapsack_60_3.kp
35635
60
272

10 1.0 47
3 0.3 35
13 1.3 53
2 0.2 97
35 3.5 2
88 8.8 86
56 5.6 50
26 2.6 88
80 8.0 83
45 4.5 67
18 1.8 60
78 7.8 40
31 3.1 76
95 9.5 23
47 4.7 4
3 0.3 61
4 0.4 15
7 0.7 19
40 4.0 23
85 8.5 54
28 2.8 38
62 6.2 20
59 5.9 33
77 7.7 5
59 5.9 30
63 6.3 95
1 0.1 33
46 4.6 16
56 5.6 71
42 4.2 1
60 6.0 90
94 9.4 65
10 1.0 53
64 6.4 72
15 1.5 68
24 2.4 58
31 3.1 94
75 7.5 32
51 5.1 87
97 9.7 36
22 2.2 57
20 2.0 42
89 8.9 62
28 2.8 40
82 8.2 7
81 8.1 64
60 6.0 97
44 4.4 97
90 9.0 37
19 1.9 26
77 7.7 8
79 7.9 99
24 2.4 24
15 1.5 22
95 9.5 49
98 9.8 71
4 0.4 91
21 2.1 41
71 7.1 33
57 5.7 48

54747
269

[2.12 3.1 2.96 3.8 2.41 1.69 1.4 3.8 3.77 4.15 1.26 2.68 3.13 3.53 3.93 4.2 0.59 4.28 2.73 3.28 0.69 3.79 0.02 0.14 0.57 1.99 4.0 0.3 3.16 3.74 1.38 0.47 2.0 2.18 0.88 1.75 1.34 3.21 2.54 0.68 2.03 0.66 4.35 4.02 4.38 0.57 0.6 3.49 3.44 2.72 0.58 3.58 4.24 1.09 2.84 0.96 3.1 0.16 1.03 2.1]

[82 83 93 98 63 48 80 22 56 37 14 98 3 79 11 7 88 43 52 5 12 38 43 69 59 7 9 62 88 78 60 38 2 28 31 32 75 27 31 61 10 96 5 24 70 89 28 8 46 87 61 31 4 43 95 42 16 45 87 29]
