instances/knapsack/discrete/knapsack_60_3.lp
\ Model knapsack_60_3
\ LP format - for model browsing. Use MPS format to capture full model detail.
\ Signature: 0x44a844bc7146bef8
Minimize
  - 24 x[0] - 64 x[1] - 26 x[2] - 58 x[3] - 19 x[4] - 67 x[5] - 75 x[6]
   - 89 x[7] - 92 x[8] - 100 x[9] - 37 x[10] - 93 x[11] - 69 x[12]
   - 60 x[13] - 77 x[14] - 14 x[15] - 60 x[16] - 8 x[17] - 28 x[18]
   - 83 x[19] - 99 x[20] - 25 x[21] - 86 x[22] - 54 x[23] - 35 x[24]
   - 80 x[25] - 62 x[26] - x[27] - 20 x[28] - 58 x[29] - 59 x[30]
   - 90 x[31] - 54 x[32] - 81 x[33] - 85 x[34] - 3 x[35] - 23 x[36]
   - 25 x[37] - 4 x[38] - 53 x[39] - 82 x[40] - 87 x[41] - 31 x[42]
   - 5 x[43] - 24 x[44] - 41 x[45] - 86 x[46] - 30 x[47] - 94 x[48]
   - 87 x[49] - 29 x[50] - 68 x[51] - 5 x[52] - 47 x[53] - 42 x[54]
   - 52 x[55] - 76 x[56] - 78 x[57] - 30 x[58] - 53 x[59]
Subject To
 primal_upper: 91 x[0] + 32 x[1] + 54 x[2] + 31 x[3] + 28 x[4] + 21 x[5]
   + 29 x[6] + 79 x[7] + 89 x[8] + 2 x[9] + 7 x[10] + 43 x[11] + 64 x[12]
   + 12 x[13] + 40 x[14] + 36 x[15] + 37 x[16] + 16 x[17] + 61 x[18]
   + 62 x[19] + x[20] + 75 x[21] + 60 x[22] + 34 x[23] + 28 x[24]
   + 56 x[25] + 22 x[26] + 51 x[27] + 9 x[28] + 95 x[29] + 13 x[30]
   + 59 x[31] + 55 x[32] + 73 x[33] + 56 x[34] + 49 x[35] + 68 x[36]
   + 100 x[37] + 40 x[38] + 10 x[39] + 35 x[40] + 9 x[41] + 18 x[42]
   + 13 x[43] + 75 x[44] + 26 x[45] + 29 x[46] + 85 x[47] + 3 x[48]
   + 48 x[49] + 38 x[50] + 68 x[51] + 17 x[52] + 12 x[53] + 52 x[54]
   + 71 x[55] + 53 x[56] + 26 x[57] + 28 x[58] + 78 x[59] + 9.1 r[0]
   + 3.2 r[1] + 5.4 r[2] + 3.1 r[3] + 2.8 r[4] + 2.1 r[5] + 2.9 r[6]
   + 7.9 r[7] + 8.9 r[8] + 0.2 r[9] + 0.7 r[10] + 4.3 r[11] + 6.4 r[12]
   + 1.2 r[13] + 4 r[14] + 3.6 r[15] + 3.7 r[16] + 1.6 r[17] + 6.1 r[18]
   + 6.2 r[19] + 0.1 r[20] + 7.5 r[21] + 6 r[22] + 3.4 r[23] + 2.8 r[24]
   + 5.6 r[25] + 2.2 r[26] + 5.1 r[27] + 0.9 r[28] + 9.5 r[29] + 1.3 r[30]
   + 5.9 r[31] + 5.5 r[32] + 7.3 r[33] + 5.6 r[34] + 4.9 r[35] + 6.8 r[36]
   + 10 r[37] + 4 r[38] + r[39] + 3.5 r[40] + 0.9 r[41] + 1.8 r[42]
   + 1.3 r[43] + 7.5 r[44] + 2.6 r[45] + 2.9 r[46] + 8.5 r[47] + 0.3 r[48]
   + 4.8 r[49] + 3.8 r[50] + 6.8 r[51] + 1.7 r[52] + 1.2 r[53] + 5.2 r[54]
   + 7.1 r[55] + 5.3 r[56] + 2.6 r[57] + 2.8 r[58] + 7.8 r[59] <= 244
 primal_lower: 2.709784883715995 x[0] + 2.227097622631839 x[1]
   + 2.550444581094943 x[2] + 0.0599701392692364 x[3]
   + 0.4453218920190714 x[4] + 3.980277746027017 x[5]
   + 2.36257585466494 x[6] + 4.597738980836168 x[7]
   + 2.730963981165905 x[8] + 0.2010855040040264 x[9]
   + 0.3537384538747619 x[10] + 2.963621308165933 x[11]
   + 3.892307607455258 x[12] + 4.205754035696127 x[13]
   + 0.5198315259435409 x[14] + 3.667237461579268 x[15]
   + 1.94064205167467 x[16] + 0.7508800059668247 x[17]
   + 1.345213733350472 x[18] + 3.814147606824481 x[19]
   + 1.841081772960155 x[20] + 0.8280145839682165 x[21]
   + 2.029779987817884 x[22] + 0.7340032208052236 x[23]
   + 3.18453273370203 x[24] + 2.592573979735438 x[25]
   + 0.4088139462223736 x[26] + 2.767376339170758 x[27]
   + 1.508784137416857 x[28] + 3.184300830850411 x[29]
   + 1.368400230584083 x[30] + 4.318798180359162 x[31]
   + 4.094835928579931 x[32] + 0.2343030468827224 x[33]
   + 4.18486565029081 x[34] + 1.777430650529087 x[35]
   + 2.485455602236245 x[36] + 3.745567982124632 x[37]
   + 2.23887385528729 x[38] + 2.071344011820079 x[39]
   + 1.654283795456004 x[40] + 2.647100067502496 x[41]
   + 2.133950414397224 x[42] + 3.4517968607813 x[43]
   + 1.815722138389681 x[44] + 1.073375418592952 x[45]
   + 1.223239027834283 x[46] + 2.208728110946525 x[47]
   + 1.333766299361412 x[48] + 0.6936175190976024 x[49]
   + 1.776460928738322 x[50] + 1.236795307121058 x[51]
   + 3.038037573229061 x[52] + 2.010820740019781 x[53]
   + 4.153860637255874 x[54] + 3.774249188382577 x[55]
   + 2.380475770485076 x[56] + 3.600618283603725 x[57]
   + 2.686377283242967 x[58] + 3.382290813939866 x[59] + 34 u[0] + 30 u[1]
   + 40 u[2] + 85 u[3] + 38 u[4] + 12 u[5] + 95 u[6] + 70 u[7] + 63 u[8]
   + 24 u[9] + 6 u[10] + 69 u[11] + 78 u[12] + 66 u[13] + 47 u[14]
   + 59 u[15] + 15 u[16] + 10 u[17] + 99 u[18] + 88 u[19] + 67 u[20]
   + 74 u[21] + 34 u[22] + 57 u[23] + 51 u[24] + 82 u[25] + 68 u[26]
   + 74 u[27] + 8 u[28] + 25 u[29] + 44 u[30] + 38 u[31] + 54 u[32]
   + 7 u[33] + 54 u[34] + 47 u[35] + 66 u[36] + 75 u[37] + 90 u[38]
   + 77 u[39] + 41 u[40] + 4 u[41] + 16 u[42] + 32 u[43] + 49 u[44]
   + 89 u[45] + 44 u[46] + 4 u[47] + u[48] + 78 u[49] + 65 u[50] + 98 u[51]
   + 27 u[52] + 10 u[53] + 15 u[54] + 26 u[55] + 71 u[56] + 85 u[57]
   + 6 u[58] + 20 u[59] <= 766
 mccormick1[0]: - u[0] + r[0] <= 0
 mccormick1[1]: - u[1] + r[1] <= 0
 mccormick1[2]: - u[2] + r[2] <= 0
 mccormick1[3]: - u[3] + r[3] <= 0
 mccormick1[4]: - u[4] + r[4] <= 0
 mccormick1[5]: - u[5] + r[5] <= 0
 mccormick1[6]: - u[6] + r[6] <= 0
 mccormick1[7]: - u[7] + r[7] <= 0
 mccormick1[8]: - u[8] + r[8] <= 0
 mccormick1[9]: - u[9] + r[9] <= 0
 mccormick1[10]: - u[10] + r[10] <= 0
 mccormick1[11]: - u[11] + r[11] <= 0
 mccormick1[12]: - u[12] + r[12] <= 0
 mccormick1[13]: - u[13] + r[13] <= 0
 mccormick1[14]: - u[14] + r[14] <= 0
 mccormick1[15]: - u[15] + r[15] <= 0
 mccormick1[16]: - u[16] + r[16] <= 0
 mccormick1[17]: - u[17] + r[17] <= 0
 mccormick1[18]: - u[18] + r[18] <= 0
 mccormick1[19]: - u[19] + r[19] <= 0
 mccormick1[20]: - u[20] + r[20] <= 0
 mccormick1[21]: - u[21] + r[21] <= 0
 mccormick1[22]: - u[22] + r[22] <= 0
 mccormick1[23]: - u[23] + r[23] <= 0
 mccormick1[24]: - u[24] + r[24] <= 0
 mccormick1[25]: - u[25] + r[25] <= 0
 mccormick1[26]: - u[26] + r[26] <= 0
 mccormick1[27]: - u[27] + r[27] <= 0
 mccormick1[28]: - u[28] + r[28] <= 0
 mccormick1[29]: - u[29] + r[29] <= 0
 mccormick1[30]: - u[30] + r[30] <= 0
 mccormick1[31]: - u[31] + r[31] <= 0
 mccormick1[32]: - u[32] + r[32] <= 0
 mccormick1[33]: - u[33] + r[33] <= 0
 mccormick1[34]: - u[34] + r[34] <= 0
 mccormick1[35]: - u[35] + r[35] <= 0
 mccormick1[36]: - u[36] + r[36] <= 0
 mccormick1[37]: - u[37] + r[37] <= 0
 mccormick1[38]: - u[38] + r[38] <= 0
 mccormick1[39]: - u[39] + r[39] <= 0
 mccormick1[40]: - u[40] + r[40] <= 0
 mccormick1[41]: - u[41] + r[41] <= 0
 mccormick1[42]: - u[42] + r[42] <= 0
 mccormick1[43]: - u[43] + r[43] <= 0
 mccormick1[44]: - u[44] + r[44] <= 0
 mccormick1[45]: - u[45] + r[45] <= 0
 mccormick1[46]: - u[46] + r[46] <= 0
 mccormick1[47]: - u[47] + r[47] <= 0
 mccormick1[48]: - u[48] + r[48] <= 0
 mccormick1[49]: - u[49] + r[49] <= 0
 mccormick1[50]: - u[50] + r[50] <= 0
 mccormick1[51]: - u[51] + r[51] <= 0
 mccormick1[52]: - u[52] + r[52] <= 0
 mccormick1[53]: - u[53] + r[53] <= 0
 mccormick1[54]: - u[54] + r[54] <= 0
 mccormick1[55]: - u[55] + r[55] <= 0
 mccormick1[56]: - u[56] + r[56] <= 0
 mccormick1[57]: - u[57] + r[57] <= 0
 mccormick1[58]: - u[58] + r[58] <= 0
 mccormick1[59]: - u[59] + r[59] <= 0
 mccormick2[0]: - x[0] + r[0] <= 0
 mccormick2[1]: - x[1] + r[1] <= 0
 mccormick2[2]: - x[2] + r[2] <= 0
 mccormick2[3]: - x[3] + r[3] <= 0
 mccormick2[4]: - x[4] + r[4] <= 0
 mccormick2[5]: - x[5] + r[5] <= 0
 mccormick2[6]: - x[6] + r[6] <= 0
 mccormick2[7]: - x[7] + r[7] <= 0
 mccormick2[8]: - x[8] + r[8] <= 0
 mccormick2[9]: - x[9] + r[9] <= 0
 mccormick2[10]: - x[10] + r[10] <= 0
 mccormick2[11]: - x[11] + r[11] <= 0
 mccormick2[12]: - x[12] + r[12] <= 0
 mccormick2[13]: - x[13] + r[13] <= 0
 mccormick2[14]: - x[14] + r[14] <= 0
 mccormick2[15]: - x[15] + r[15] <= 0
 mccormick2[16]: - x[16] + r[16] <= 0
 mccormick2[17]: - x[17] + r[17] <= 0
 mccormick2[18]: - x[18] + r[18] <= 0
 mccormick2[19]: - x[19] + r[19] <= 0
 mccormick2[20]: - x[20] + r[20] <= 0
 mccormick2[21]: - x[21] + r[21] <= 0
 mccormick2[22]: - x[22] + r[22] <= 0
 mccormick2[23]: - x[23] + r[23] <= 0
 mccormick2[24]: - x[24] + r[24] <= 0
 mccormick2[25]: - x[25] + r[25] <= 0
 mccormick2[26]: - x[26] + r[26] <= 0
 mccormick2[27]: - x[27] + r[27] <= 0
 mccormick2[28]: - x[28] + r[28] <= 0
 mccormick2[29]: - x[29] + r[29] <= 0
 mccormick2[30]: - x[30] + r[30] <= 0
 mccormick2[31]: - x[31] + r[31] <= 0
 mccormick2[32]: - x[32] + r[32] <= 0
 mccormick2[33]: - x[33] + r[33] <= 0
 mccormick2[34]: - x[34] + r[34] <= 0
 mccormick2[35]: - x[35] + r[35] <= 0
 mccormick2[36]: - x[36] + r[36] <= 0
 mccormick2[37]: - x[37] + r[37] <= 0
 mccormick2[38]: - x[38] + r[38] <= 0
 mccormick2[39]: - x[39] + r[39] <= 0
 mccormick2[40]: - x[40] + r[40] <= 0
 mccormick2[41]: - x[41] + r[41] <= 0
 mccormick2[42]: - x[42] + r[42] <= 0
 mccormick2[43]: - x[43] + r[43] <= 0
 mccormick2[44]: - x[44] + r[44] <= 0
 mccormick2[45]: - x[45] + r[45] <= 0
 mccormick2[46]: - x[46] + r[46] <= 0
 mccormick2[47]: - x[47] + r[47] <= 0
 mccormick2[48]: - x[48] + r[48] <= 0
 mccormick2[49]: - x[49] + r[49] <= 0
 mccormick2[50]: - x[50] + r[50] <= 0
 mccormick2[51]: - x[51] + r[51] <= 0
 mccormick2[52]: - x[52] + r[52] <= 0
 mccormick2[53]: - x[53] + r[53] <= 0
 mccormick2[54]: - x[54] + r[54] <= 0
 mccormick2[55]: - x[55] + r[55] <= 0
 mccormick2[56]: - x[56] + r[56] <= 0
 mccormick2[57]: - x[57] + r[57] <= 0
 mccormick2[58]: - x[58] + r[58] <= 0
 mccormick2[59]: - x[59] + r[59] <= 0
 mccormick3[0]: x[0] + u[0] - r[0] <= 1
 mccormick3[1]: x[1] + u[1] - r[1] <= 1
 mccormick3[2]: x[2] + u[2] - r[2] <= 1
 mccormick3[3]: x[3] + u[3] - r[3] <= 1
 mccormick3[4]: x[4] + u[4] - r[4] <= 1
 mccormick3[5]: x[5] + u[5] - r[5] <= 1
 mccormick3[6]: x[6] + u[6] - r[6] <= 1
 mccormick3[7]: x[7] + u[7] - r[7] <= 1
 mccormick3[8]: x[8] + u[8] - r[8] <= 1
 mccormick3[9]: x[9] + u[9] - r[9] <= 1
 mccormick3[10]: x[10] + u[10] - r[10] <= 1
 mccormick3[11]: x[11] + u[11] - r[11] <= 1
 mccormick3[12]: x[12] + u[12] - r[12] <= 1
 mccormick3[13]: x[13] + u[13] - r[13] <= 1
 mccormick3[14]: x[14] + u[14] - r[14] <= 1
 mccormick3[15]: x[15] + u[15] - r[15] <= 1
 mccormick3[16]: x[16] + u[16] - r[16] <= 1
 mccormick3[17]: x[17] + u[17] - r[17] <= 1
 mccormick3[18]: x[18] + u[18] - r[18] <= 1
 mccormick3[19]: x[19] + u[19] - r[19] <= 1
 mccormick3[20]: x[20] + u[20] - r[20] <= 1
 mccormick3[21]: x[21] + u[21] - r[21] <= 1
 mccormick3[22]: x[22] + u[22] - r[22] <= 1
 mccormick3[23]: x[23] + u[23] - r[23] <= 1
 mccormick3[24]: x[24] + u[24] - r[24] <= 1
 mccormick3[25]: x[25] + u[25] - r[25] <= 1
 mccormick3[26]: x[26] + u[26] - r[26] <= 1
 mccormick3[27]: x[27] + u[27] - r[27] <= 1
 mccormick3[28]: x[28] + u[28] - r[28] <= 1
 mccormick3[29]: x[29] + u[29] - r[29] <= 1
 mccormick3[30]: x[30] + u[30] - r[30] <= 1
 mccormick3[31]: x[31] + u[31] - r[31] <= 1
 mccormick3[32]: x[32] + u[32] - r[32] <= 1
 mccormick3[33]: x[33] + u[33] - r[33] <= 1
 mccormick3[34]: x[34] + u[34] - r[34] <= 1
 mccormick3[35]: x[35] + u[35] - r[35] <= 1
 mccormick3[36]: x[36] + u[36] - r[36] <= 1
 mccormick3[37]: x[37] + u[37] - r[37] <= 1
 mccormick3[38]: x[38] + u[38] - r[38] <= 1
 mccormick3[39]: x[39] + u[39] - r[39] <= 1
 mccormick3[40]: x[40] + u[40] - r[40] <= 1
 mccormick3[41]: x[41] + u[41] - r[41] <= 1
 mccormick3[42]: x[42] + u[42] - r[42] <= 1
 mccormick3[43]: x[43] + u[43] - r[43] <= 1
 mccormick3[44]: x[44] + u[44] - r[44] <= 1
 mccormick3[45]: x[45] + u[45] - r[45] <= 1
 mccormick3[46]: x[46] + u[46] - r[46] <= 1
 mccormick3[47]: x[47] + u[47] - r[47] <= 1
 mccormick3[48]: x[48] + u[48] - r[48] <= 1
 mccormick3[49]: x[49] + u[49] - r[49] <= 1
 mccormick3[50]: x[50] + u[50] - r[50] <= 1
 mccormick3[51]: x[51] + u[51] - r[51] <= 1
 mccormick3[52]: x[52] + u[52] - r[52] <= 1
 mccormick3[53]: x[53] + u[53] - r[53] <= 1
 mccormick3[54]: x[54] + u[54] - r[54] <= 1
 mccormick3[55]: x[55] + u[55] - r[55] <= 1
 mccormick3[56]: x[56] + u[56] - r[56] <= 1
 mccormick3[57]: x[57] + u[57] - r[57] <= 1
 mccormick3[58]: x[58] + u[58] - r[58] <= 1
 mccormick3[59]: x[59] + u[59] - r[59] <= 1
Bounds
Binaries
 x[0] x[1] x[2] x[3] x[4] x[5] x[6] x[7] x[8] x[9] x[10] x[11] x[12] x[13]
 x[14] x[15] x[16] x[17] x[18] x[19] x[20] x[21] x[22] x[23] x[24] x[25]
 x[26] x[27] x[28] x[29] x[30] x[31] x[32] x[33] x[34] x[35] x[36] x[37]
 x[38] x[39] x[40] x[41] x[42] x[43] x[44] x[45] x[46] x[47] x[48] x[49]
 x[50] x[51] x[52] x[53] x[54] x[55] x[56] x[57] x[58] x[59] u[0] u[1] u[2]
 u[3] u[4] u[5] u[6] u[7] u[8] u[9] u[10] u[11] u[12] u[13] u[14] u[15]
 u[16] u[17] u[18] u[19] u[20] u[21] u[22] u[23] u[24] u[25] u[26] u[27]
 u[28] u[29] u[30] u[31] u[32] u[33] u[34] u[35] u[36] u[37] u[38] u[39]
 u[40] u[41] u[42] u[43] u[44] u[45] u[46] u[47] u[48] u[49] u[50] u[51]
 u[52] u[53] u[54] u[55] u[56] u[57] u[58] u[59] r[0] r[1] r[2] r[3] r[4]
 r[5] r[6] r[7] r[8] r[9] r[10] r[11] r[12] r[13] r[14] r[15] r[16] r[17]
 r[18] r[19] r[20] r[21] r[22] r[23] r[24] r[25] r[26] r[27] r[28] r[29]
 r[30] r[31] r[32] r[33] r[34] r[35] r[36] r[37] r[38] r[39] r[40] r[41]
 r[42] r[43] r[44] r[45] r[46] r[47] r[48] r[49] r[50] r[51] r[52] r[53]
 r[54] r[55] r[56] r[57] r[58] r[59]
End
